12 26
1 2 48
1 4 251
1 5 362
1 9 216
1 10 253
1 11 617
2 4 252
2 5 380
2 8 591
2 9 173
2 10 207
2 11 661
3 7 47
3 10 275
3 12 223
4 8 348
4 10 276
4 11 580
5 6 236
6 9 179
6 12 222
7 9 311
7 12 226
8 10 524
9 10 176
9 12 178
